
#(C) 2014 by Fachinformationszentrum Karlsruhe.  All rights reserved.
data_190423-ICSD
_database_code_ICSD 190423
_audit_creation_date 2014-08-01
_chemical_name_systematic 'Gallium arsenide'
_chemical_formula_structural 'Ga As'
_chemical_formula_sum 'As1 Ga1'
_chemical_name_structure_type ZnS(2H)
_exptl_crystal_density_diffrn 5.66
_cell_measurement_temperature 0.
_cell_measurement_pressure 0.
_publ_section_title

;
A plane-wave pseudopotential study on III-V zinc-blende and wurtzite
semiconductors under pressure
;
loop_
_citation_id
_citation_journal_full
_citation_year
_citation_journal_volume
_citation_page_first
_citation_page_last
_citation_journal_id_ASTM
primary 'Journal of Physics: Condensed Matter' 2002 14 9579 9587 JCOMEL
loop_
_publ_author_name
'Wang, S.Q.'
'Ye, H.Q.'
_cell_length_a 3.912
_cell_length_b 3.912
_cell_length_c 6.407
_cell_angle_alpha 90.
_cell_angle_beta 90.
_cell_angle_gamma 120.
_cell_volume 84.91
_cell_formula_units_Z 2
_symmetry_space_group_name_H-M 'P 63 m c'
_symmetry_Int_Tables_number 186
loop_
_symmetry_equiv_pos_site_id
_symmetry_equiv_pos_as_xyz
1 '-x, -x+y, z+1/2'
2 'x-y, -y, z+1/2'
3 'y, x, z+1/2'
4 'x-y, x, z+1/2'
5 'y, -x+y, z+1/2'
6 '-x, -y, z+1/2'
7 'x, x-y, z'
8 '-x+y, y, z'
9 '-y, -x, z'
10 '-x+y, -x, z'
11 '-y, x-y, z'
12 'x, y, z'
loop_
_atom_type_symbol
_atom_type_oxidation_number
Ga3+ 3
As3- -3
loop_
_atom_site_label
_atom_site_type_symbol
_atom_site_symmetry_multiplicity
_atom_site_Wyckoff_symbol
_atom_site_fract_x
_atom_site_fract_y
_atom_site_fract_z
_atom_site_B_iso_or_equiv
_atom_site_occupancy
_atom_site_attached_hydrogens
Ga1 Ga3+ 2 b 0.3333 0.6667 0 . 1. 0
As1 As3- 2 b 0.3333 0.6667 0.3747 . 1. 0
#End of TTdata_190423-ICSD